c p_0 3
c s0 1
c p_1 4
c sp0 2
p cnf 180 527
a 1 2 3 4 0
d 22 1 0
d 6 1 3 4 0
d 63 1 0
d 62 2 0
d 59 1 0
d 70 2 0
d 129 1 0
d 26 1 0
d 87 1 0
d 103 1 0
d 76 2 0
d 46 2 0
d 11 2 0
d 51 1 0
d 38 2 0
d 90 1 0
d 75 2 0
d 25 2 0
d 16 2 0
d 21 1 0
d 9 1 0
d 89 2 0
d 127 1 0
d 7 1 0
d 24 2 0
d 106 1 0
d 96 2 0
e 5 8 10 12 13 14 15 17 18 19 20 23 27 28 29 30 31 32 33 34 35 36 37 39 40 41 42 43 44 45 47 48 49 50 52 53 54 55 56 57 58 60 61 64 65 66 67 68 69 71 72 73 74 77 78 79 80 81 82 83 84 85 86 88 91 92 93 94 95 97 98 99 100 101 102 104 105 107 108 109 110 111 112 113 114 115 116 117 118 119 120 121 122 123 124 125 126 128 130 131 132 133 134 135 136 137 138 139 140 141 142 143 144 145 146 147 148 149 150 151 152 153 154 155 156 157 158 159 160 161 162 163 164 165 166 167 168 169 170 171 172 173 174 175 176 177 178 179 0
-5 -1 0
-5 -2 0
5 1 2 0
-1 8 0
-7 8 0
-8 1 7 0
-10 2 -6 0
-10 -2 6 0
10 2 6 0
10 -2 -6 0
10 12 0
-11 12 0
-12 -10 11 0
4 13 0
-12 13 0
-13 -4 12 0
-14 -4 0
-14 3 0
14 4 -3 0
-15 2 -6 0
-15 -2 6 0
15 2 6 0
15 -2 -6 0
15 17 0
-16 17 0
-17 -15 16 0
14 18 0
-17 18 0
-18 -14 17 0
-19 13 0
-19 18 0
19 -13 -18 0
9 20 0
-19 20 0
-20 -9 19 0
-23 2 -6 0
-23 -2 6 0
23 2 6 0
23 -2 -6 0
-27 25 0
-27 -26 0
27 -25 26 0
-28 24 0
-28 27 0
28 -24 -27 0
23 29 0
-28 29 0
-29 -23 28 0
-22 30 0
-29 30 0
-30 22 29 0
21 31 0
-30 31 0
-31 -21 30 0
-32 -4 0
-32 3 0
32 4 -3 0
-33 2 -6 0
-33 -2 6 0
33 2 6 0
33 -2 -6 0
33 34 0
-16 34 0
-34 -33 16 0
32 35 0
-34 35 0
-35 -32 34 0
-36 -4 0
-36 3 0
36 4 -3 0
-37 2 -6 0
-37 -2 6 0
37 2 6 0
37 -2 -6 0
37 39 0
-38 39 0
-39 -37 38 0
36 40 0
-39 40 0
-40 -36 39 0
-41 2 -6 0
-41 -2 6 0
41 2 6 0
41 -2 -6 0
41 42 0
-11 42 0
-42 -41 11 0
4 43 0
-42 43 0
-43 -4 42 0
-44 -4 0
-44 -3 0
44 4 3 0
-45 2 -6 0
-45 -2 6 0
45 2 6 0
45 -2 -6 0
45 47 0
-46 47 0
-47 -45 46 0
44 48 0
-47 48 0
-48 -44 47 0
-49 35 0
-49 40 0
-49 43 0
-49 48 0
49 -35 -40 -43 -48 0
7 50 0
-49 50 0
-50 -7 49 0
-52 2 -6 0
-52 -2 6 0
52 2 6 0
52 -2 -6 0
52 53 0
-24 53 0
-53 -52 24 0
-22 54 0
-53 54 0
-54 22 53 0
-55 2 -6 0
-55 -2 6 0
55 2 6 0
55 -2 -6 0
55 56 0
-11 56 0
-56 -55 11 0
-57 54 0
-57 56 0
57 -54 -56 0
51 58 0
-57 58 0
-58 -51 57 0
-60 22 0
-60 -4 0
-60 3 0
60 -22 4 -3 0
-61 2 -6 0
-61 -2 6 0
61 2 6 0
61 -2 -6 0
-64 62 0
-64 -63 0
64 -62 63 0
-65 38 0
-65 64 0
65 -38 -64 0
61 66 0
-65 66 0
-66 -61 65 0
60 67 0
-66 67 0
-67 -60 66 0
-68 -22 0
-68 -4 0
-68 -3 0
68 22 4 3 0
-69 2 -6 0
-69 -2 6 0
69 2 6 0
69 -2 -6 0
69 71 0
-70 71 0
-71 -69 70 0
68 72 0
-71 72 0
-72 -68 71 0
-73 -22 0
-73 -4 0
-73 3 0
73 22 4 -3 0
-74 2 -6 0
-74 -2 6 0
74 2 6 0
74 -2 -6 0
-77 76 -63 0
-77 -76 63 0
77 76 63 0
77 -76 -63 0
-78 75 0
-78 77 0
78 -75 -77 0
74 79 0
-78 79 0
-79 -74 78 0
73 80 0
-79 80 0
-80 -73 79 0
-81 22 0
-81 -4 0
-81 -3 0
81 -22 4 3 0
-82 2 -6 0
-82 -2 6 0
82 2 6 0
82 -2 -6 0
82 83 0
-46 83 0
-83 -82 46 0
81 84 0
-83 84 0
-84 -81 83 0
-85 67 0
-85 72 0
-85 80 0
-85 84 0
85 -67 -72 -80 -84 0
59 86 0
-85 86 0
-86 -59 85 0
-88 2 -6 0
-88 -2 6 0
88 2 6 0
88 -2 -6 0
-91 89 -90 0
-91 -89 90 0
91 89 90 0
91 -89 -90 0
-92 70 0
-92 91 0
92 -70 -91 0
88 93 0
-92 93 0
-93 -88 92 0
-22 94 0
-93 94 0
-94 22 93 0
-95 2 -6 0
-95 -2 6 0
95 2 6 0
95 -2 -6 0
-97 96 0
-97 -90 0
97 -96 90 0
-98 46 0
-98 97 0
98 -46 -97 0
95 99 0
-98 99 0
-99 -95 98 0
22 100 0
-99 100 0
-100 -22 99 0
-101 94 0
-101 100 0
101 -94 -100 0
87 102 0
-101 102 0
-102 -87 101 0
-104 22 0
-104 -4 0
-104 3 0
104 -22 4 -3 0
-105 2 -6 0
-105 -2 6 0
105 2 6 0
105 -2 -6 0
-107 62 0
-107 -106 0
107 -62 106 0
-108 38 0
-108 107 0
108 -38 -107 0
105 109 0
-108 109 0
-109 -105 108 0
104 110 0
-109 110 0
-110 -104 109 0
-111 -22 0
-111 -4 0
-111 -3 0
111 22 4 3 0
-112 2 -6 0
-112 -2 6 0
112 2 6 0
112 -2 -6 0
112 113 0
-70 113 0
-113 -112 70 0
111 114 0
-113 114 0
-114 -111 113 0
-115 -22 0
-115 -4 0
-115 3 0
115 22 4 -3 0
-116 2 -6 0
-116 -2 6 0
116 2 6 0
116 -2 -6 0
-117 76 -106 0
-117 -76 106 0
117 76 106 0
117 -76 -106 0
-118 75 0
-118 117 0
118 -75 -117 0
116 119 0
-118 119 0
-119 -116 118 0
115 120 0
-119 120 0
-120 -115 119 0
-121 22 0
-121 -4 0
-121 -3 0
121 -22 4 3 0
-122 2 -6 0
-122 -2 6 0
122 2 6 0
122 -2 -6 0
122 123 0
-46 123 0
-123 -122 46 0
121 124 0
-123 124 0
-124 -121 123 0
-125 110 0
-125 114 0
-125 120 0
-125 124 0
125 -110 -114 -120 -124 0
103 126 0
-125 126 0
-126 -103 125 0
-128 2 -6 0
-128 -2 6 0
128 2 6 0
128 -2 -6 0
-130 89 -129 0
-130 -89 129 0
130 89 129 0
130 -89 -129 0
-131 70 0
-131 130 0
131 -70 -130 0
128 132 0
-131 132 0
-132 -128 131 0
-22 133 0
-132 133 0
-133 22 132 0
-134 2 -6 0
-134 -2 6 0
134 2 6 0
134 -2 -6 0
-135 96 0
-135 -129 0
135 -96 129 0
-136 46 0
-136 135 0
136 -46 -135 0
134 137 0
-136 137 0
-137 -134 136 0
22 138 0
-137 138 0
-138 -22 137 0
-139 133 0
-139 138 0
139 -133 -138 0
127 140 0
-139 140 0
-140 -127 139 0
-141 -6 0
-141 8 0
-141 20 0
-141 31 0
-141 50 0
-141 58 0
-141 86 0
-141 102 0
-141 126 0
-141 140 0
141 6 -8 -20 -31 -50 -58 -86 -102 -126 -140 0
5 142 0
-141 142 0
-142 -5 141 0
-143 1 -2 0
-143 -1 2 0
143 1 2 0
143 -1 -2 0
-144 63 -62 0
-144 -63 62 0
144 63 62 0
144 -63 -62 0
143 145 0
-144 145 0
-145 -143 144 0
-146 1 -2 0
-146 -1 2 0
146 1 2 0
146 -1 -2 0
-147 59 -38 0
-147 -59 38 0
147 59 38 0
147 -59 -38 0
146 148 0
-147 148 0
-148 -146 147 0
-149 2 -1 0
-149 -2 1 0
149 2 1 0
149 -2 -1 0
-150 70 -87 0
-150 -70 87 0
150 70 87 0
150 -70 -87 0
149 151 0
-150 151 0
-151 -149 150 0
-152 1 -2 0
-152 -1 2 0
152 1 2 0
152 -1 -2 0
-153 129 -96 0
-153 -129 96 0
153 129 96 0
153 -129 -96 0
152 154 0
-153 154 0
-154 -152 153 0
-155 1 -2 0
-155 -1 2 0
155 1 2 0
155 -1 -2 0
-156 26 -25 0
-156 -26 25 0
156 26 25 0
156 -26 -25 0
155 157 0
-156 157 0
-157 -155 156 0
-158 1 -2 0
-158 -1 2 0
158 1 2 0
158 -1 -2 0
-159 103 -75 0
-159 -103 75 0
159 103 75 0
159 -103 -75 0
158 160 0
-159 160 0
-160 -158 159 0
-161 2 -1 0
-161 -2 1 0
161 2 1 0
161 -2 -1 0
-162 76 -106 0
-162 -76 106 0
162 76 106 0
162 -76 -106 0
161 163 0
-162 163 0
-163 -161 162 0
-164 2 -1 0
-164 -2 1 0
164 2 1 0
164 -2 -1 0
-165 46 -127 0
-165 -46 127 0
165 46 127 0
165 -46 -127 0
164 166 0
-165 166 0
-166 -164 165 0
-167 2 -1 0
-167 -2 1 0
167 2 1 0
167 -2 -1 0
-168 11 -51 0
-168 -11 51 0
168 11 51 0
168 -11 -51 0
167 169 0
-168 169 0
-169 -167 168 0
-170 1 -2 0
-170 -1 2 0
170 1 2 0
170 -1 -2 0
-171 90 -89 0
-171 -90 89 0
171 90 89 0
171 -90 -89 0
170 172 0
-171 172 0
-172 -170 171 0
-173 2 -1 0
-173 -2 1 0
173 2 1 0
173 -2 -1 0
-174 16 -9 0
-174 -16 9 0
174 16 9 0
174 -16 -9 0
173 175 0
-174 175 0
-175 -173 174 0
-176 1 -2 0
-176 -1 2 0
176 1 2 0
176 -1 -2 0
-177 21 -24 0
-177 -21 24 0
177 21 24 0
177 -21 -24 0
176 178 0
-177 178 0
-178 -176 177 0
-179 145 0
-179 148 0
-179 151 0
-179 154 0
-179 157 0
-179 160 0
-179 163 0
-179 166 0
-179 169 0
-179 172 0
-179 175 0
-179 178 0
179 -145 -148 -151 -154 -157 -160 -163 -166 -169 -172 -175 -178 0
142 0
179 0
